0111000000000000
0111000000000000
0111000000000000
0011111111110000
0011111111110000
0000000001110000
0000000001110000
0000000001110000
0000000001110000
0000000001110000
0000000001110000
0000000111000000
0000001110000000
0000111000000000
0000110000000000
0000110000000000